NAME : XML100_3371_23
DIMENSION : 101
NB_CLUSTERS : 4
CLUSTERING_ALG : KMedoids
CLUSTERING_PARAMS : k(3)
CLUSTERS
1 0
2 2 6 7 9 10 11 14 19 20 23 24 27 30 31 32 33 34 38 42 43 45 50 51 55 58 59 60 61 62 63 68 69 70 71 77 83 84 85 88 89 91 94 95 96
3 1 3 4 5 16 17 18 21 26 29 35 36 37 39 40 47 48 52 53 56 57 66 72 74 76 79 81 82 86 90 92 98
4 8 12 13 15 22 25 28 41 44 46 49 54 64 65 67 73 75 78 80 87 93 97 99 100
EOF